718
655
659
630
852
525
594
810
505
621
606
587
608
610
645
599
699
653
721
676
658
708
682
683
596
615
687
614
519
745
669
693
637
724
619
633
741
722
692
670
550
615
659
757
659
482
521
511
774
693
592
821
601
801
534
603
722
658
652
665
632
738
722
619
572
717
556
730
647
665
699
621
627
597
634
857
576
723
743
632
739
582
745
666
656
644
618
558
777
558
517
658
609
678
535
608
755
680
782
660
